gil250_1
0 163 224 82 157 225 38 102 15 162 59 243 3 190 112 198 73 191 19 185 72 186 100 145 115 154 244 108 142 202 139 232 155 70 99 138 21 81 4 95 34 156 239 192 184 218 86 247 88 187 45 212 98 117 92 178 227 20 109 158 60 97 132 201 245 40 24 17 175 113 103 66 168 42 10 57 131 214 125 170 2 114 153 9 150 220 36 0 64 217 65 206 183 58 121 189 248 13 167 89 230 26 148 101 193 249 62 177 69 237 146 135 16 37 25 104 141 246 160 140 164 28 182 180 63 216 179 196 48 174 143 128 161 46 91 77 0